801,406
644,292
606,880
653,397
267,471
415,364
975,257
729,371
749,539
1020,745
532,112
591,406
542,-21
518,86
709,397
892,697
918,443
1137,554
148,322
425,489
385,360
463,248
1184,327
436,887
321,766
652,410
1081,202
980,-6
436,-75
415,364
254,623
795,369
576,261
996,177
744,343
801,406
326,350
829,554
778,336
